Normalized Data/p03_3070_tsplib0_normalized_split0.vrp
NAME:p03_3070_tsplib0_NORMALIZED_split
BEST_KNOWN: 0
COMMENT: 0
DIMENSION: 534
CAPACITY: 100
EDGE_WEIGHT_FORMAT: FUNCTION
EDGE_WEIGHT_TYPE: EXACT_2D
NODE_COORD_SECTION
1 0.00000 0.00000
2 6 14
3 6 14
4 6 14
5 6 14
6 6 14
7 6 14
8 6 14
9 0 -18
10 0 -18
11 0 -18
12 20 10
13 20 10
14 20 10
15 20 10
16 20 10
17 20 10
18 20 10
19 20 -15
20 20 -15
21 20 -15
22 20 -15
23 20 -15
24 -20 -5
25 -20 -5
26 -20 -5
27 -20 -5
28 -20 -5
29 -10 -5
30 -10 -5
31 -10 -5
32 -10 -5
33 -10 -5
34 -10 -5
35 -10 -5
36 -15 15
37 -15 15
38 -15 15
39 -15 15
40 -15 15
41 -15 15
42 -15 15
43 -25 8
44 -25 8
45 -25 8
46 -25 8
47 -25 8
48 -25 8
49 20 25
50 20 25
51 20 25
52 20 25
53 20 25
54 20 25
55 -5 25
56 -5 25
57 -5 25
58 -15 30
59 -15 30
60 -15 30
61 -15 30
62 -15 30
63 15 0
64 15 0
65 15 0
66 -5 -10
67 -5 -10
68 -5 -10
69 -5 -10
70 -5 -10
71 -5 -10
72 -20 -25
73 -20 -25
74 -20 -25
75 -5 -30
76 -5 -30
77 -5 -30
78 -5 -30
79 -5 -30
80 -5 -30
81 -5 -30
82 -25 -15
83 -25 -15
84 -25 -15
85 -30 -5
86 -30 -5
87 -30 -5
88 -30 -5
89 -30 -5
90 -15 5
91 -15 5
92 -15 5
93 -20 25
94 -20 25
95 -20 25
96 -20 25
97 -20 25
98 -20 25
99 -20 25
100 10 30
101 10 30
102 10 30
103 10 30
104 10 -15
105 10 -15
106 10 -15
107 10 -15
108 10 -15
109 10 -15
110 10 -25
111 10 -25
112 10 -25
113 10 -25
114 20 -30
115 20 -30
116 20 -30
117 20 -30
118 20 -30
119 30 0
120 30 0
121 30 0
122 30 0
123 30 0
124 30 0
125 30 -15
126 30 -15
127 30 -15
128 30 -15
129 10 -5
130 10 -5
131 10 -5
132 10 -5
133 10 -5
134 10 -5
135 10 -5
136 10 -5
137 0 5
138 0 5
139 0 5
140 6 2
141 6 2
142 6 2
143 6 2
144 29 7
145 29 7
146 29 7
147 29 7
148 5 25
149 5 25
150 5 25
151 5 25
152 5 25
153 5 25
154 -4 17
155 -4 17
156 -4 17
157 -4 17
158 -4 17
159 -4 17
160 -4 17
161 0 34
162 0 34
163 0 34
164 0 34
165 0 34
166 18 17
167 18 17
168 18 17
169 18 17
170 18 17
171 18 17
172 30 20
173 30 20
174 30 20
175 30 20
176 30 20
177 30 20
178 28 30
179 28 30
180 28 30
181 28 30
182 28 30
183 28 30
184 -33 25
185 -33 25
186 -33 25
187 -33 25
188 -33 25
189 -33 25
190 -33 25
191 -15 -15
192 -15 -15
193 -15 -15
194 -15 -15
195 -30 -30
196 -30 -30
197 -30 -30
198 -30 -30
199 -30 -30
200 -30 -30
201 -30 -30
202 25 -23
203 25 -23
204 25 -23
205 25 -23
206 25 -23
207 25 -23
208 25 -23
209 5 -10
210 5 -10
211 5 -10
212 5 -10
213 5 -10
214 5 -10
215 7 -28
216 7 -28
217 7 -28
218 7 -28
219 7 -28
220 -11 -23
221 -11 -23
222 -11 -23
223 -11 -23
224 -12 -32
225 -12 -32
226 -12 -32
227 -12 -32
228 -24 -21
229 -24 -21
230 -24 -21
231 -24 -21
232 -24 -21
233 -29 3
234 -29 3
235 -29 3
236 -29 3
237 -33 13
238 -33 13
239 -33 13
240 -27 21
241 -27 21
242 -27 21
243 -27 21
244 -27 21
245 -27 21
246 -27 21
247 -22 17
248 -22 17
249 -22 17
250 -22 17
251 -22 17
252 -29 33
253 -29 33
254 -29 33
255 -29 33
256 -29 33
257 -29 33
258 12 12
259 12 12
260 12 12
261 12 12
262 12 12
263 12 12
264 12 12
265 14 23
266 14 23
267 14 23
268 14 23
269 14 23
270 -8 8
271 -8 8
272 -8 8
273 -8 8
274 -8 8
275 2 -4
276 2 -4
277 2 -4
278 2 -4
279 2 -4
280 22 -6
281 22 -6
282 22 -6
283 22 -6
284 22 -6
285 28 -12
286 28 -12
287 28 -12
288 28 -12
289 28 -12
290 28 -12
291 28 -12
292 28 -12
293 18 -23
294 18 -23
295 18 -23
296 18 -23
297 18 -23
298 18 -23
299 18 -23
300 18 -23
301 -3 -23
302 -3 -23
303 -3 -23
304 -3 -23
305 1 -9
306 1 -9
307 1 -9
308 1 -9
309 1 -9
310 1 -9
311 1 -9
312 -14 -11
313 -14 -11
314 -14 -11
315 -14 -11
316 -18 -1
317 -18 -1
318 -18 -1
319 -18 -1
320 -18 -1
321 -23 -11
322 -23 -11
323 -23 -11
324 -23 -11
325 -11 23
326 -11 23
327 -8 34
328 -8 34
329 -8 34
330 -8 34
331 -20 42
332 -20 42
333 -20 42
334 27 42
335 27 42
336 27 42
337 27 42
338 27 42
339 27 42
340 14 38
341 14 38
342 14 38
343 14 38
344 14 38
345 14 38
346 14 38
347 32 -30
348 32 -30
349 32 -30
350 32 -30
351 32 -30
352 32 -30
353 32 -30
354 21 4
355 21 4
356 21 4
357 21 4
358 21 4
359 2 12
360 2 12
361 2 12
362 2 12
363 2 12
364 2 12
365 2 12
366 2 12
367 2 21
368 2 21
369 2 21
370 2 21
371 2 21
372 2 21
373 2 21
374 22 33
375 22 33
376 22 33
377 22 33
378 22 33
379 22 33
380 12 -19
381 12 -19
382 12 -19
383 12 -19
384 9 -18
385 9 -18
386 9 -18
387 9 -18
388 9 -18
389 9 -18
390 11 -22
391 11 -22
392 11 -22
393 11 -22
394 11 -22
395 11 -22
396 11 -22
397 11 -22
398 14 -24
399 14 -24
400 14 -24
401 14 -24
402 14 7
403 14 7
404 14 7
405 14 7
406 14 7
407 18 8
408 18 8
409 18 8
410 18 8
411 18 8
412 18 8
413 26 17
414 26 17
415 26 17
416 26 17
417 26 17
418 26 17
419 26 17
420 22 13
421 22 13
422 22 13
423 22 13
424 22 13
425 21 2
426 21 2
427 21 2
428 21 2
429 21 2
430 20 19
431 20 19
432 20 19
433 20 19
434 20 19
435 -20 12
436 -20 12
437 -20 12
438 -21 2
439 -21 2
440 -21 2
441 -21 2
442 -21 2
443 -21 2
444 -24 -4
445 -24 -4
446 -24 -4
447 -24 -4
448 -19 -13
449 -19 -13
450 -19 -13
451 -19 -13
452 -19 -13
453 -19 -13
454 -19 -13
455 -19 -13
456 -31 -17
457 -31 -17
458 -31 -17
459 -31 -17
460 -7 -17
461 -7 -17
462 -7 -17
463 -7 -17
464 -7 -17
465 -7 -17
466 -7 -17
467 -7 -17
468 -9 17
469 -9 17
470 -9 17
471 -9 17
472 -9 17
473 -9 0
474 -9 0
475 -9 0
476 -9 0
477 -9 0
478 -9 0
479 -9 0
480 -4 32
481 -4 32
482 -4 32
483 -4 32
484 -4 32
485 -4 32
486 -20 -16
487 -20 -16
488 -20 -16
489 -20 -16
490 -20 -16
491 -13 -13
492 -13 -13
493 -13 -13
494 -13 -13
495 -13 -13
496 -13 -13
497 -17 -11
498 -17 -11
499 -17 -11
500 -17 -11
501 -17 -11
502 -9 -8
503 -9 -8
504 -9 -8
505 -9 -8
506 -9 -8
507 -9 -8
508 -10 -11
509 -10 -11
510 -10 -11
511 -10 -11
512 -10 -11
513 -10 -11
514 -13 -8
515 -13 -8
516 -13 -8
517 -13 -8
518 -10 -14
519 -10 -14
520 -10 -14
521 -16 -14
522 -16 -14
523 -16 -14
524 -16 -14
525 -16 -14
526 -15 -9
527 -15 -9
528 -15 -9
529 -17 -17
530 -17 -17
531 -17 -17
532 -17 -17
533 -17 -17
534 -17 -17
DEMAND_SECTION
1 0
2 20
3 20
4 20
5 1
6 1
7 1
8 1
9 20
10 20
11 5
12 20
13 10
14 5
15 1
16 1
17 1
18 1
19 20
20 20
21 10
22 1
23 1
24 20
25 20
26 20
27 5
28 1
29 20
30 20
31 20
32 1
33 1
34 1
35 1
36 20
37 20
38 5
39 1
40 1
41 1
42 1
43 20
44 10
45 1
46 1
47 1
48 1
49 20
50 10
51 5
52 1
53 1
54 1
55 20
56 10
57 1
58 20
59 20
60 20
61 1
62 1
63 20
64 20
65 5
66 20
67 20
68 5
69 1
70 1
71 1
72 20
73 20
74 10
75 20
76 20
77 10
78 5
79 1
80 1
81 1
82 20
83 20
84 1
85 20
86 10
87 1
88 1
89 1
90 20
91 20
92 10
93 20
94 20
95 20
96 1
97 1
98 1
99 1
100 20
101 20
102 10
103 1
104 20
105 10
106 1
107 1
108 1
109 1
110 20
111 20
112 10
113 5
114 20
115 20
116 10
117 5
118 1
119 20
120 20
121 10
122 1
123 1
124 1
125 20
126 20
127 20
128 1
129 20
130 20
131 10
132 5
133 1
134 1
135 1
136 1
137 20
138 10
139 1
140 20
141 20
142 20
143 1
144 20
145 10
146 5
147 1
148 20
149 10
150 1
151 1
152 1
153 1
154 20
155 20
156 20
157 1
158 1
159 1
160 1
161 20
162 20
163 20
164 1
165 1
166 20
167 20
168 20
169 1
170 1
171 1
172 20
173 10
174 5
175 1
176 1
177 1
178 20
179 20
180 20
181 1
182 1
183 1
184 20
185 20
186 5
187 1
188 1
189 1
190 1
191 20
192 20
193 20
194 1
195 20
196 20
197 5
198 1
199 1
200 1
201 1
202 20
203 20
204 5
205 1
206 1
207 1
208 1
209 20
210 20
211 20
212 1
213 1
214 1
215 20
216 10
217 5
218 1
219 1
220 20
221 10
222 1
223 1
224 20
225 20
226 10
227 5
228 20
229 20
230 10
231 5
232 1
233 20
234 20
235 20
236 5
237 20
238 20
239 1
240 20
241 20
242 5
243 1
244 1
245 1
246 1
247 20
248 20
249 5
250 1
251 1
252 20
253 20
254 20
255 1
256 1
257 1
258 20
259 20
260 10
261 1
262 1
263 1
264 1
265 20
266 20
267 10
268 5
269 1
270 20
271 20
272 10
273 5
274 1
275 20
276 10
277 1
278 1
279 1
280 20
281 20
282 20
283 5
284 1
285 20
286 20
287 10
288 5
289 1
290 1
291 1
292 1
293 20
294 20
295 10
296 5
297 1
298 1
299 1
300 1
301 20
302 20
303 1
304 1
305 20
306 20
307 10
308 5
309 1
310 1
311 1
312 20
313 20
314 5
315 1
316 20
317 20
318 1
319 1
320 1
321 20
322 20
323 20
324 5
325 20
326 20
327 20
328 20
329 1
330 1
331 20
332 20
333 1
334 20
335 20
336 1
337 1
338 1
339 1
340 20
341 20
342 5
343 1
344 1
345 1
346 1
347 20
348 20
349 20
350 1
351 1
352 1
353 1
354 20
355 10
356 1
357 1
358 1
359 20
360 20
361 20
362 5
363 1
364 1
365 1
366 1
367 20
368 20
369 20
370 1
371 1
372 1
373 1
374 20
375 20
376 20
377 5
378 1
379 1
380 20
381 20
382 20
383 5
384 20
385 20
386 20
387 1
388 1
389 1
390 20
391 20
392 20
393 5
394 1
395 1
396 1
397 1
398 20
399 10
400 1
401 1
402 20
403 20
404 1
405 1
406 1
407 20
408 20
409 10
410 1
411 1
412 1
413 20
414 20
415 10
416 5
417 1
418 1
419 1
420 20
421 20
422 10
423 1
424 1
425 20
426 20
427 20
428 1
429 1
430 20
431 20
432 10
433 5
434 1
435 20
436 20
437 1
438 20
439 20
440 10
441 5
442 1
443 1
444 20
445 20
446 10
447 5
448 20
449 20
450 20
451 5
452 1
453 1
454 1
455 1
456 20
457 20
458 20
459 1
460 20
461 20
462 20
463 5
464 1
465 1
466 1
467 1
468 20
469 20
470 20
471 1
472 1
473 20
474 20
475 20
476 1
477 1
478 1
479 1
480 20
481 10
482 1
483 1
484 1
485 1
486 20
487 20
488 20
489 1
490 1
491 20
492 20
493 10
494 1
495 1
496 1
497 20
498 10
499 5
500 1
501 1
502 20
503 20
504 20
505 5
506 1
507 1
508 20
509 20
510 10
511 5
512 1
513 1
514 20
515 20
516 20
517 1
518 20
519 20
520 20
521 20
522 20
523 5
524 1
525 1
526 20
527 20
528 20
529 20
530 10
531 1
532 1
533 1
534 1
DEPOT_SECTION
1
-1
EOF