Normalized Data/p03_3070_tsplib0_normalized_split0.sol
533 -3 1 5 7 2 6 4 360 362 361 -9 8 459 460 461 -10 216 218 215 217 214 110 111 112 109 -16 15 176 173 175 171 174 172 412 416 415 413 418 414 417 -20 21 19 22 18 379 382 381 -27 25 24 23 26 516 515 -28 32 30 34 67 66 70 65 -33 31 29 504 501 503 502 506 505 -37 41 36 40 39 35 38 436 435 434 91 -44 46 45 42 43 47 234 232 233 235 -52 53 51 50 181 182 179 178 377 376 375 373 -56 55 326 328 327 329 331 330 332 61 60 -57 59 58 94 93 -63 62 279 281 280 -64 120 123 118 122 119 121 143 144 146 145 -68 69 219 222 221 220 223 226 225 224 465 463 464 466 462 -73 71 72 198 199 200 194 197 195 196 -78 76 77 79 74 80 75 302 301 300 303 -83 82 81 230 227 231 228 229 532 530 -86 85 88 84 87 456 457 458 455 -90 89 441 442 440 439 437 438 -92 97 98 95 96 252 256 251 255 253 254 -100 101 102 99 340 345 344 342 343 339 341 -107 106 108 104 103 105 388 385 384 383 -132 126 127 124 291 286 287 288 284 285 289 -134 135 128 129 133 131 130 209 211 212 274 -137 138 136 269 273 271 270 272 -140 139 141 142 -151 150 152 149 148 147 371 366 368 370 372 369 367 -155 54 324 325 468 -158 159 153 156 154 157 471 470 467 469 -164 162 163 161 160 481 479 484 483 482 480 -165 169 168 170 166 431 429 432 430 433 -167 49 48 264 265 267 -180 177 335 336 334 338 333 337 378 374 268 266 -184 186 183 187 189 185 188 243 239 242 241 240 245 244 -202 205 201 207 204 293 299 292 294 298 296 -203 206 347 351 346 352 350 349 348 125 290 282 283 -238 237 236 247 249 248 250 246 -261 260 262 263 258 259 257 363 364 358 359 365 -276 277 208 210 304 305 307 306 310 308 309 -278 275 213 386 387 389 390 393 392 391 380 -295 297 114 113 115 117 116 399 400 397 398 394 395 396 -311 313 314 312 491 490 492 495 -315 316 319 318 317 446 443 444 445 -321 322 323 320 524 523 521 494 493 509 -357 356 354 353 355 426 425 424 428 427 -404 405 402 401 403 411 406 407 409 -410 408 14 12 11 17 13 422 420 419 421 423 -452 453 454 447 448 449 450 451 500 497 496 -473 478 476 477 475 472 474 -498 499 489 488 486 487 485 531 533 529 528 -507 508 519 517 518 -512 510 511 190 191 193 192 520 522 -514 513 527 526 525 0 





OBJ=
3061.504
BEST_KNOWN=
0.000